data/benchmarks/bayes/90-14-7-q.cnf
p cnf 924 797
c weights 0.801067 0.19893300000000003 1 1 1 1 1 1 1 1 1 1 1 1 1 1 1 1 1 1 1 1 1 1 1 1 1 1 1 1 1 1 1 1 1 1 1 1 1 1 1 1 1 1 1 1 1 1 1 1 1 1 1 1 1 1 1 1 1 1 1 1 1 1 1 1 1 1 1 1 1 1 1 1 1 1 1 1 1 1 1 1 1 1 1 1 1 1 1 1 1 1 1 1 1 1 1 1 1 1 1 1 1 1 1 1 1 1 1 1 1 1 1 1 1 1 1 1 1 1 1 1 1 1 1 1 1 1 1 1 1 1 1 1 1 1 1 1 1 1 1 1 1 1 1 1 1 1 1 1 1 1 1 1 1 1 1 1 1 1 1 1 1 1 1 1 1 1 1 1 1 1 1 1 1 1 1 1 1 1 1 1 1 1 1 1 1 1 1 1 1 1 1 1 1 1 1 1 1 1 1 1 1 1 1 1 1 1 1 1 1 1 1 1 1 1 1 1 1 1 1 1 1 1 1 1 1 1 1 1 1 1 1 1 1 1 1 1 1 1 1 1 1 1 1 1 1 1 1 1 1 1 1 1 1 1 1 1 1 1 1 1 1 1 1 1 1 1 1 1 1 1 1 1 1 1 1 1 1 1 1 1 1 1 1 1 1 1 1 1 1 1 1 1 1 1 1 1 1 1 1 1 1 1 1 1 1 1 1 1 1 1 1 1 1 1 1 1 1 1 1 1 1 1 1 1 1 1 1 1 1 1 1 1 1 1 1 1 1 1 1 1 1 1 1 1 1 1 1 1 1 1 1 1 1 1 1 1 1 1 1 1 1 1 1 1 1 1 1 1 1 1 1 1 1 1 1 1 1 1 1 1 1 1 1 1 1 1 1 1 1 1 0.5 0.5 0.5 0.5 0.5 0.5 0.5 0.5 0.5 0.5 0.5 0.5 0.5 0.5 0.5 0.5 0.5 0.5 0.5 0.5 0.5 0.5 0.5 0.5 0.5 0.5 0.5 0.5 0.5 0.5 0.5 0.5 0.5 0.5 0.5 0.5 0.5 0.5 0.5 0.5 0.5 0.5 0.5 0.5 0.5 0.5 0.5 0.5 0.5 0.5 0.5 0.5 0.5 0.5 0.5 0.5 0.5 0.5 0.5 0.5 0.5 0.5 0.5 0.5 0.5 0.5 0.5 0.5 0.5 0.5 0.5 0.5 0.5 0.5 0.5 0.5 0.5 0.5 0.5 0.5 0.5 0.5 0.5 0.5 0.5 0.5 0.5 0.5 0.398216 0.601784 0.146048 0.853952 0.109293 0.890707 0.362472 0.637528 0.5 0.5 0.5 0.5 0.5 0.5 0.5 0.5 0.5 0.5 0.5 0.5 0.5 0.5 0.5 0.5 0.5 0.5 0.5 0.5 0.5 0.5 0.5 0.5 0.5 0.5 0.5 0.5 0.5 0.5 0.5 0.5 0.5 0.5 0.5 0.5 0.5 0.5 0.5 0.5 0.5 0.5 0.5 0.5 0.5 0.5 0.5 0.5 0.5 0.5 0.5 0.5 0.5 0.5 0.5 0.5 0.5 0.5 0.5 0.5 0.5 0.5 0.5 0.5 0.5 0.5 0.5 0.5 0.5 0.5 0.5 0.5 0.5 0.5 0.5 0.5 0.5 0.5 0.5 0.5 0.5 0.5 0.5 0.5 0.0814079 0.9185921 0.540061 0.459939 0.186876 0.813124 0.791972 0.208028 0.5 0.5 0.5 0.5 0.5 0.5 0.5 0.5 0.5 0.5 0.5 0.5 0.5 0.5 0.5 0.5 0.5 0.5 0.5 0.5 0.5 0.5 0.5 0.5 0.5 0.5 0.5 0.5 0.5 0.5 0.5 0.5 0.5 0.5 0.5 0.5 0.5 0.5 0.5 0.5 0.894287 0.10571299999999995 0.414282 0.585718 0.533616 0.466384 0.0811632 0.9188368 0.5 0.5 0.5 0.5 0.5 0.5 0.5 0.5 0.5 0.5 0.5 0.5 0.5 0.5 0.5 0.5 0.5 0.5 0.5 0.5 0.5 0.5 0.5 0.5 0.5 0.5 0.5 0.5 0.5 0.5 0.5 0.5 0.5 0.5 0.5 0.5 0.5 0.5 0.5 0.5 0.5 0.5 0.5 0.5 0.5 0.5 0.5 0.5 0.5 0.5 0.5 0.5 0.5 0.5 0.5 0.5 0.5 0.5 0.5 0.5 0.5 0.5 0.5 0.5 0.5 0.5 0.5 0.5 0.5 0.5 0.5 0.5 0.5 0.5 0.5 0.5 0.5 0.5 0.5 0.5 0.5 0.5 0.5 0.5 0.622039 0.377961 0.153685 0.846315 0.134792 0.865208 0.240768 0.759232 0.393955 0.606045 0.0657505 0.9342495 0.822703 0.17729700000000004 0.579304 0.42069599999999996 0.5 0.5 0.5 0.5 0.5 0.5 0.5 0.5 0.0403206 0.9596794 0.871419 0.12858099999999995 0.494911 0.505089 0.0748782 0.9251218 0.5 0.5 0.5 0.5 0.5 0.5 0.5 0.5 0.5 0.5 0.5 0.5 0.5 0.5 0.5 0.5 0.5 0.5 0.5 0.5 0.5 0.5 0.5 0.5 0.5 0.5 0.5 0.5 0.5 0.5 0.5 0.5 0.5 0.5 0.5 0.5 0.5 0.5 0.5 0.5 0.5 0.5 0.5 0.5 0.5 0.5 0.5 0.5 0.5 0.5 0.5 0.5 0.669192 0.330808 0.452275 0.547725 0.47355 0.52645 0.926578 0.07342199999999999 0.5 0.5 0.5 0.5 0.5 0.5 0.5 0.5 0.5 0.5 0.5 0.5 0.5 0.5 0.5 0.5 0.5 0.5 0.5 0.5 0.5 0.5 0.5 0.5 0.5 0.5 0.5 0.5 0.5 0.5 0.5 0.5 0.5 0.5 0.5 0.5 0.5 0.5 0.5 0.5 0.5 0.5 0.5 0.5 0.5 0.5 0.5 0.5 0.5 0.5 0.5 0.5 0.5 0.5 0.5 0.5 0.5 0.5 0.5 0.5 0.5 0.5 0.5 0.5 0.5 0.5 0.5 0.5 0.5 0.5 0.5 0.5 0.5 0.5 0.5 0.5 0.5 0.5 0.5 0.5 0.5 0.5 0.5 0.5 0.5 0.5 0.5 0.5 0.5 0.5 0.5 0.5 0.5 0.5 0.5 0.5 0.5 0.5 0.5 0.5 0.5 0.5 0.5 0.5 0.5 0.5 0.5 0.5 0.5 0.5 0.5 0.5 0.5 0.5 0.5 0.5 0.5 0.5 0.5 0.5 0.5 0.5 0.5 0.5 0.5 0.5 0.5 0.5 0.5 0.5 0.5 0.5 0.5 0.5 0.5 0.5 0.5 0.5 0.5 0.5 0.951925 0.04807499999999998 0.226676 0.773324 0.941984 0.058015999999999956 0.255049 0.7449509999999999 0.5 0.5 0.5 0.5 0.5 0.5 0.5 0.5 0.5 0.5 0.5 0.5 0.5 0.5 0.5 0.5 0.5 0.5 0.5 0.5 0.5 0.5 0.5 0.5 0.5 0.5 0.5 0.5 0.5 0.5 0.5 0.5 0.5 0.5 0.5 0.5 0.5 0.5 0.5 0.5 0.5 0.5 0.5 0.5 0.5 0.5 0.5 0.5 0.5 0.5 0.5 0.5 0.5 0.5 0.5 0.5 0.5 0.5 0.5 0.5 0.5 0.5 0.5 0.5 0.5 0.5 0.5 0.5 0.5 0.5 0.5 0.5 0.5 0.5 0.5 0.5 0.824993 0.17500700000000002 0.343109 0.656891 0.50247 0.49753000000000003 0.0376196 0.9623804 0.5 0.5 0.5 0.5 0.5 0.5 0.5 0.5 0.5 0.5 0.5 0.5 0.5 0.5 0.5 0.5 0.5 0.5 0.5 0.5 0.5 0.5 0.5 0.5 0.5 0.5 0.5 0.5 0.5 0.5 0.5 0.5 0.5 0.5 0.5 0.5 0.5 0.5 0.5 0.5 0.5 0.5 0.5 0.5 0.5 0.5 0.5 0.5 0.5 0.5 0.5 0.5 0.5 0.5 0.5 0.5 0.5 0.5 0.5 0.5 0.5 0.5 0.5 0.5 0.5 0.5 0.5 0.5 0.5 0.5 0.5 0.5 0.5 0.5 0.5 0.5 0.5 0.5 0.5 0.5 0.5 0.5 0.5 0.5 0.5 0.5 0.5 0.5 0.5 0.5 0.5 0.5 0.5 0.5 0.5 0.5 0.5 0.5 0.5 0.5 0.5 0.5 0.5 0.5 0.5 0.5 0.5 0.5 0.5 0.5 0.5 0.5 0.5 0.5 0.5 0.5 0.5 0.5 0.5 0.5 0.5 0.5 0.5 0.5 0.5 0.5 0.5 0.5 0.5 0.5 0.5 0.5 0.5 0.5 0.5 0.5 0.5 0.5 0.5 0.5 0.5 0.5 0.5 0.5 0.5 0.5 0.5 0.5 0.5 0.5 0.5 0.5 0.5 0.5 0.5 0.5 0.5 0.5 0.5 0.5 0.5 0.5 0.5 0.5 0.5 0.5 0.5 0.5 0.104755 0.895245 0.742273 0.25772700000000004 0.668394 0.33160599999999996 0.418022 0.581978 0.5 0.5 0.5 0.5 0.5 0.5 0.5 0.5 0.5 0.5 0.5 0.5 0.5 0.5 0.5 0.5 0.0790403 0.9209597 0.186637 0.8133630000000001 0.150757 0.849243 0.298494 0.701506 0.5 0.5 0.5 0.5 0.5 0.5 0.5 0.5 0.5 0.5 0.5 0.5 0.5 0.5 0.5 0.5 0.5 0.5 0.5 0.5 0.5 0.5 0.5 0.5 0.5 0.5 0.5 0.5 0.5 0.5 0.5 0.5 0.5 0.5 0.5 0.5 0.5 0.5 0.5 0.5 0.5 0.5 0.5 0.5 0.5 0.5 0.5 0.5 0.5 0.5 0.5 0.5 0.5 0.5 0.5 0.5 0.5 0.5 0.5 0.5 0.5 0.5 0.5 0.5 0.5 0.5 0.5 0.5 0.5 0.5 0.5 0.5 0.5 0.5 0.5 0.5 0.5 0.5 0.5 0.5 0.5 0.5 0.5 0.5 0.5 0.5 0.5 0.5 0.5 0.5 0.5 0.5 0.5 0.5 0.5 0.5 0.5 0.5 0.5 0.5 0.5 0.5 0.5 0.5 0.5 0.5 0.5 0.5 0.5 0.5 0.5 0.5 0.5 0.5 0.5 0.5 0.5 0.5 0.5 0.5 0.5 0.5 0.5 0.5 0.5 0.5 0.5 0.5 0.5 0.5 0.5 0.5 0.5 0.5 0.5 0.5 0.5 0.5 0.5 0.5 0.869344 0.130656 0.457863 0.542137 0.732858 0.267142 0.291329 0.708671 0.5 0.5 0.5 0.5 0.5 0.5 0.5 0.5 0.5 0.5 0.5 0.5 0.5 0.5 0.5 0.5 0.5 0.5 0.5 0.5 0.5 0.5 0.5 0.5 0.5 0.5 0.5 0.5 0.5 0.5 0.5 0.5 0.5 0.5 0.5 0.5 0.5 0.5 0.5 0.5 0.5 0.5 0.5 0.5 0.980631 0.01936899999999997 0.660165 0.339835 0.238502 0.761498 0.0172994 0.9827006 0.5 0.5 0.5 0.5 0.5 0.5 0.5 0.5 0.5 0.5 0.5 0.5 0.5 0.5 0.5 0.5 0.5 0.5 0.5 0.5 0.5 0.5 0.5 0.5 0.5 0.5 0.5 0.5 0.5 0.5 0.5 0.5 0.5 0.5 0.5 0.5 0.5 0.5 0.5 0.5 0.5 0.5 0.5 0.5 0.5 0.5 0.5 0.5 0.5 0.5 0.5 0.5 0.5 0.5 0.5 0.5 0.5 0.5 0.5 0.5 0.5 0.5 0.5 0.5 0.5 0.5 0.5 0.5 0.5 0.5 0.5 0.5 0.5 0.5 0.5 0.5 0.5 0.5 0.5 0.5 0.5 0.5 0.5 0.5 0.5 0.5 0.5 0.5 0.5 0.5 0.5 0.5 0.5 0.5 0.5 0.5 0.5 0.5 0.5 0.5 0.5 0.5 0.5 0.5 0.5 0.5 0.5 0.5 0.5 0.5 0.5 0.5 0.5 0.5 0.5 0.5 0.5 0.5 0.5 0.5 0.5 0.5 0.5 0.5 0.5 0.5 0.5 0.5 0.5 0.5 0.5 0.5 0.534271 0.46572899999999995 0.0976826 0.9023174 0.290563 0.709437 0.993103 0.006897000000000042 0.5 0.5 0.5 0.5 0.5 0.5 0.5 0.5 0.5 0.5 0.5 0.5 0.5 0.5 0.5 0.5 0.5 0.5 0.5 0.5 0.5 0.5 0.5 0.5 0.65464 0.34536 0.17188 0.82812 0.934633 0.06536699999999995 0.679945 0.320055 0.222947 0.777053 0.165062 0.834938 0.753484 0.24651599999999996 0.849166 0.15083400000000002 0.5 0.5 0.5 0.5 0.5 0.5 0.5 0.5 0.5 0.5 0.5 0.5 0.5 0.5 0.5 0.5 0.5 0.5 0.5 0.5 0.5 0.5 0.5 0.5 0.5 0.5 0.5 0.5 0.5 0.5 0.5 0.5 0.5 0.5 0.5 0.5 0.5 0.5 0.5 0.5 0.5 0.5 0.5 0.5 0.5 0.5 0.5 0.5 0.5 0.5 0.5 0.5 0.5 0.5 0.5 0.5 0.5 0.5 0.5 0.5 0.5 0.5 0.5 0.5 0.5 0.5 0.5 0.5 0.5 0.5 0.5 0.5 0.5 0.5 0.5 0.5 0.5 0.5 0.5 0.5 0.5 0.5 0.5 0.5 0.5 0.5 0.5 0.5 0.5 0.5 0.5 0.5 0.5 0.5 0.5 0.5 0.5 0.5 0.5 0.5 0.5 0.5 0.5 0.5 0.5 0.5 0.5 0.5 0.5 0.5 0.5 0.5 0.5 0.5 0.5 0.5 0.5 0.5 0.5 0.5 0.5 0.5 0.5 0.5 0.5 0.5 0.5 0.5 0.831678 0.16832199999999997 0.56246 0.43754000000000004 0.0961243 0.9038757 0.28623 0.71377 0.5 0.5 0.5 0.5 0.5 0.5 0.5 0.5 0.5 0.5 0.5 0.5 0.5 0.5 0.5 0.5 0.5 0.5 0.5 0.5 0.5 0.5 0.5 0.5 0.5 0.5 0.5 0.5 0.5 0.5 0.5 0.5 0.5 0.5 0.5 0.5 0.5 0.5 0.5 0.5 0.5 0.5 0.5 0.5 0.5 0.5 0.5 0.5 0.5 0.5 0.5 0.5 0.5 0.5 0.5 0.5 0.5 0.5 0.5 0.5 0.5 0.5 0.5 0.5 0.5 0.5 0.5 0.5 0.5 0.5 0.5 0.5 0.5 0.5 0.5 0.5 0.5 0.5 0.5 0.5 0.5 0.5 0.5 0.5 0.5 0.5 0.5 0.5 0.5 0.5 0.5 0.5 0.5 0.5 0.5 0.5
-1 2 0
1 -2 0
-2 3 0
2 -3 0
-3 4 0
3 -4 0
-4 -5 0
4 5 0
-5 6 0
5 -6 0
-6 7 0
6 -7 0
-7 8 0
7 -8 0
-8 9 0
8 -9 0
-9 -10 0
9 10 0
-10 -11 0
10 11 0
-11 12 0
11 -12 0
-12 -13 0
12 13 0
-13 -14 0
13 14 0
-1 15 0
1 -15 0
-15 -2 -16 0
-15 2 16 0
15 -2 16 0
15 2 16 0
-16 -3 -17 0
-16 3 17 0
16 -3 17 0
16 3 17 0
-17 -4 18 0
-17 4 -18 0
17 -4 -18 0
17 4 18 0
-18 -5 19 0
-18 5 19 0
18 -5 19 0
18 5 -19 0
-19 -6 -241 20 0
-19 -6 241 -20 0
-19 6 -242 20 0
-19 6 242 -20 0
19 -6 -243 20 0
19 -6 243 -20 0
19 6 -244 20 0
19 6 244 -20 0
-20 -7 -21 0
-20 7 -21 0
20 -7 21 0
20 7 21 0
-21 -8 22 0
-21 8 22 0
21 -8 22 0
21 8 -22 0
-22 -9 23 0
-22 9 -23 0
22 -9 -23 0
22 9 -23 0
-23 -10 -24 0
-23 10 24 0
23 -10 -24 0
23 10 24 0
-24 -11 -25 0
-24 11 -25 0
24 -11 25 0
24 11 25 0
-25 -12 26 0
-25 12 26 0
25 -12 -26 0
25 12 26 0
-26 -13 27 0
-26 13 -27 0
26 -13 -27 0
26 13 -27 0
-27 -14 -28 0
-27 14 28 0
27 -14 -28 0
27 14 28 0
-15 29 0
15 -29 0
-29 -16 30 0
-29 16 -30 0
29 -16 -30 0
29 16 30 0
-30 -17 31 0
-30 17 31 0
30 -17 31 0
30 17 -31 0
-31 -18 -287 32 0
-31 -18 287 -32 0
-31 18 -288 32 0
-31 18 288 -32 0
31 -18 -289 32 0
31 -18 289 -32 0
31 18 -290 32 0
31 18 290 -32 0
-32 -19 33 0
-32 19 33 0
32 -19 -33 0
32 19 33 0
-33 -20 -34 0
-33 20 34 0
33 -20 -34 0
33 20 34 0
-34 -21 35 0
-34 21 35 0
34 -21 -35 0
34 21 -35 0
-35 -22 -36 0
-35 22 36 0
35 -22 36 0
35 22 -36 0
-36 -23 37 0
-36 23 -37 0
36 -23 37 0
36 23 37 0
-37 -24 -311 38 0
-37 -24 311 -38 0
-37 24 -312 38 0
-37 24 312 -38 0
37 -24 -313 38 0
37 -24 313 -38 0
37 24 -314 38 0
37 24 314 -38 0
-38 -25 -39 0
-38 25 39 0
38 -25 -39 0
38 25 -39 0
-39 -26 -40 0
-39 26 -40 0
39 -26 -40 0
39 26 40 0
-40 -27 41 0
-40 27 -41 0
40 -27 -41 0
40 27 41 0
-41 -28 -42 0
-41 28 42 0
41 -28 -42 0
41 28 42 0
-29 -43 0
29 43 0
-43 -30 44 0
-43 30 44 0
43 -30 -44 0
43 30 44 0
-44 -31 -45 0
-44 31 45 0
44 -31 -45 0
44 31 45 0
-45 -32 -46 0
-45 32 -46 0
45 -32 46 0
45 32 -46 0
-46 -33 47 0
-46 33 47 0
46 -33 -47 0
46 33 -47 0
-47 -34 -48 0
-47 34 48 0
47 -34 -48 0
47 34 48 0
-48 -35 49 0
-48 35 -49 0
48 -35 -49 0
48 35 -49 0
-49 -36 -357 50 0
-49 -36 357 -50 0
-49 36 -358 50 0
-49 36 358 -50 0
49 -36 -359 50 0
49 -36 359 -50 0
49 36 -360 50 0
49 36 360 -50 0
-50 -37 -361 51 0
-50 -37 361 -51 0
-50 37 -362 51 0
-50 37 362 -51 0
50 -37 -363 51 0
50 -37 363 -51 0
50 37 -364 51 0
50 37 364 -51 0
-51 -38 -52 0
-51 38 -52 0
51 -38 52 0
51 38 52 0
-52 -39 -369 53 0
-52 -39 369 -53 0
-52 39 -370 53 0
-52 39 370 -53 0
52 -39 -371 53 0
52 -39 371 -53 0
52 39 -372 53 0
52 39 372 -53 0
-53 -40 54 0
-53 40 -54 0
53 -40 -54 0
53 40 54 0
-54 -41 -55 0
-54 41 -55 0
54 -41 55 0
54 41 -55 0
-55 -42 56 0
-55 42 56 0
55 -42 -56 0
55 42 -56 0
-43 57 0
43 -57 0
-57 -44 58 0
-57 44 -58 0
57 -44 58 0
57 44 58 0
-58 -45 -59 0
-58 45 -59 0
58 -45 59 0
58 45 -59 0
-59 -46 60 0
-59 46 -60 0
59 -46 60 0
59 46 -60 0
-60 -47 -399 61 0
-60 -47 399 -61 0
-60 47 -400 61 0
-60 47 400 -61 0
60 -47 -401 61 0
60 -47 401 -61 0
60 47 -402 61 0
60 47 402 -61 0
-61 -48 -62 0
-61 48 62 0
61 -48 62 0
61 48 -62 0
-62 -49 -63 0
-62 49 -63 0
62 -49 -63 0
62 49 63 0
-63 -50 64 0
-63 50 -64 0
63 -50 -64 0
63 50 -64 0
-64 -51 -65 0
-64 51 -65 0
64 -51 -65 0
64 51 65 0
-65 -52 66 0
-65 52 -66 0
65 -52 -66 0
65 52 66 0
-66 -53 67 0
-66 53 -67 0
66 -53 67 0
66 53 -67 0
-67 -54 68 0
-67 54 -68 0
67 -54 68 0
67 54 -68 0
-68 -55 -69 0
-68 55 69 0
68 -55 69 0
68 55 -69 0
-69 -56 70 0
-69 56 -70 0
69 -56 70 0
69 56 70 0
-57 71 0
57 -71 0
-71 -58 72 0
-71 58 72 0
71 -58 72 0
71 58 -72 0
-72 -59 -73 0
-72 59 -73 0
72 -59 73 0
72 59 -73 0
-73 -60 74 0
-73 60 -74 0
73 -60 74 0
73 60 -74 0
-74 -61 75 0
-74 61 -75 0
74 -61 -75 0
74 61 -75 0
-75 -62 -76 0
-75 62 76 0
75 -62 -76 0
75 62 -76 0
-76 -63 77 0
-76 63 -77 0
76 -63 77 0
76 63 77 0
-77 -64 -78 0
-77 64 -78 0
77 -64 78 0
77 64 78 0
-78 -65 79 0
-78 65 -79 0
78 -65 -79 0
78 65 -79 0
-79 -66 -473 80 0
-79 -66 473 -80 0
-79 66 -474 80 0
-79 66 474 -80 0
79 -66 -475 80 0
79 -66 475 -80 0
79 66 -476 80 0
79 66 476 -80 0
-80 -67 -81 0
-80 67 -81 0
80 -67 -81 0
80 67 81 0
-81 -68 82 0
-81 68 -82 0
81 -68 82 0
81 68 82 0
-82 -69 -83 0
-82 69 -83 0
82 -69 -83 0
82 69 83 0
-83 -70 84 0
-83 70 -84 0
83 -70 -84 0
83 70 -84 0
-71 -85 0
71 85 0
-85 -72 -86 0
-85 72 86 0
85 -72 -86 0
85 72 -86 0
-86 -73 87 0
-86 73 87 0
86 -73 -87 0
86 73 87 0
-87 -74 -88 0
-87 74 88 0
87 -74 -88 0
87 74 -88 0
-88 -75 89 0
-88 75 89 0
88 -75 -89 0
88 75 -89 0
-89 -76 90 0
-89 76 -90 0
89 -76 90 0
89 76 90 0
-90 -77 -515 91 0
-90 -77 515 -91 0
-90 77 -516 91 0
-90 77 516 -91 0
90 -77 -517 91 0
90 -77 517 -91 0
90 77 -518 91 0
90 77 518 -91 0
-91 -78 92 0
-91 78 92 0
91 -78 -92 0
91 78 -92 0
-92 -79 -93 0
-92 79 93 0
92 -79 93 0
92 79 93 0
-93 -80 94 0
-93 80 -94 0
93 -80 94 0
93 80 94 0
-94 -81 -95 0
-94 81 95 0
94 -81 -95 0
94 81 -95 0
-95 -82 96 0
-95 82 -96 0
95 -82 -96 0
95 82 -96 0
-96 -83 97 0
-96 83 -97 0
96 -83 97 0
96 83 97 0
-97 -84 98 0
-97 84 -98 0
97 -84 -98 0
97 84 -98 0
-85 -99 0
85 99 0
-99 -86 -100 0
-99 86 -100 0
99 -86 100 0
99 86 -100 0
-100 -87 101 0
-100 87 -101 0
100 -87 101 0
100 87 -101 0
-101 -88 -102 0
-101 88 102 0
101 -88 102 0
101 88 -102 0
-102 -89 103 0
-102 89 103 0
102 -89 103 0
102 89 -103 0
-103 -90 104 0
-103 90 104 0
103 -90 -104 0
103 90 104 0
-104 -91 105 0
-104 91 105 0
104 -91 -105 0
104 91 -105 0
-105 -92 -106 0
-105 92 -106 0
105 -92 106 0
105 92 -106 0
-106 -93 107 0
-106 93 -107 0
106 -93 107 0
106 93 107 0
-107 -94 108 0
-107 94 108 0
107 -94 -108 0
107 94 108 0
-108 -95 -109 0
-108 95 109 0
108 -95 -109 0
108 95 109 0
-109 -96 110 0
-109 96 -110 0
109 -96 -110 0
109 96 110 0
-110 -97 111 0
-110 97 -111 0
110 -97 -111 0
110 97 111 0
-111 -98 -112 0
-111 98 -112 0
111 -98 112 0
111 98 -112 0
-99 -113 0
99 113 0
-113 -100 -603 114 0
-113 -100 603 -114 0
-113 100 -604 114 0
-113 100 604 -114 0
113 -100 -605 114 0
113 -100 605 -114 0
113 100 -606 114 0
113 100 606 -114 0
-114 -101 115 0
-114 101 -115 0
114 -101 115 0
114 101 -115 0
-115 -102 116 0
-115 102 -116 0
115 -102 -116 0
115 102 -116 0
-116 -103 -615 117 0
-116 -103 615 -117 0
-116 103 -616 117 0
-116 103 616 -117 0
116 -103 -617 117 0
116 -103 617 -117 0
116 103 -618 117 0
116 103 618 -117 0
-117 -104 118 0
-117 104 -118 0
117 -104 -118 0
117 104 118 0
-118 -105 119 0
-118 105 119 0
118 -105 -119 0
118 105 119 0
-119 -106 -120 0
-119 106 120 0
119 -106 -120 0
119 106 -120 0
-120 -107 121 0
-120 107 -121 0
120 -107 -121 0
120 107 121 0
-121 -108 122 0
-121 108 122 0
121 -108 -122 0
121 108 122 0
-122 -109 123 0
-122 109 123 0
122 -109 -123 0
122 109 -123 0
-123 -110 124 0
-123 110 124 0
123 -110 -124 0
123 110 -124 0
-124 -111 125 0
-124 111 -125 0
124 -111 125 0
124 111 125 0
-125 -112 126 0
-125 112 -126 0
125 -112 -126 0
125 112 126 0
-113 127 0
113 -127 0
-127 -114 -128 0
-127 114 -128 0
127 -114 128 0
127 114 128 0
-128 -115 129 0
-128 115 -129 0
128 -115 129 0
128 115 -129 0
-129 -116 130 0
-129 116 -130 0
129 -116 130 0
129 116 130 0
-130 -117 131 0
-130 117 131 0
130 -117 131 0
130 117 -131 0
-131 -118 132 0
-131 118 132 0
131 -118 132 0
131 118 -132 0
-132 -119 133 0
-132 119 -133 0
132 -119 133 0
132 119 -133 0
-133 -120 134 0
-133 120 -134 0
133 -120 -134 0
133 120 -134 0
-134 -121 135 0
-134 121 -135 0
134 -121 -135 0
134 121 -135 0
-135 -122 -689 136 0
-135 -122 689 -136 0
-135 122 -690 136 0
-135 122 690 -136 0
135 -122 -691 136 0
135 -122 691 -136 0
135 122 -692 136 0
135 122 692 -136 0
-136 -123 137 0
-136 123 -137 0
136 -123 137 0
136 123 -137 0
-137 -124 -138 0
-137 124 138 0
137 -124 -138 0
137 124 138 0
-138 -125 139 0
-138 125 -139 0
138 -125 139 0
138 125 -139 0
-139 -126 140 0
-139 126 140 0
139 -126 -140 0
139 126 140 0
-127 -141 0
127 141 0
-141 -128 142 0
-141 128 -142 0
141 -128 142 0
141 128 -142 0
-142 -129 -715 143 0
-142 -129 715 -143 0
-142 129 -716 143 0
-142 129 716 -143 0
142 -129 -717 143 0
142 -129 717 -143 0
142 129 -718 143 0
142 129 718 -143 0
-143 -130 144 0
-143 130 144 0
143 -130 -144 0
143 130 -144 0
-144 -131 145 0
-144 131 -145 0
144 -131 145 0
144 131 -145 0
-145 -132 146 0
-145 132 146 0
145 -132 -146 0
145 132 -146 0
-146 -133 147 0
-146 133 -147 0
146 -133 -147 0
146 133 147 0
-147 -134 148 0
-147 134 -148 0
147 -134 148 0
147 134 -148 0
-148 -135 149 0
-148 135 149 0
148 -135 149 0
148 135 -149 0
-149 -136 -150 0
-149 136 -150 0
149 -136 150 0
149 136 -150 0
-150 -137 151 0
-150 137 -151 0
150 -137 -151 0
150 137 151 0
-151 -138 -152 0
-151 138 -152 0
151 -138 152 0
151 138 -152 0
-152 -139 -153 0
-152 139 -153 0
152 -139 -153 0
152 139 153 0
-153 -140 154 0
-153 140 -154 0
153 -140 154 0
153 140 -154 0
-141 155 0
141 -155 0
-155 -142 -156 0
-155 142 -156 0
155 -142 156 0
155 142 156 0
-156 -143 -157 0
-156 143 157 0
156 -143 157 0
156 143 157 0
-157 -144 -158 0
-157 144 -158 0
157 -144 158 0
157 144 -158 0
-158 -145 -159 0
-158 145 159 0
158 -145 159 0
158 145 -159 0
-159 -146 -160 0
-159 146 160 0
159 -146 160 0
159 146 160 0
-160 -147 -785 161 0
-160 -147 785 -161 0
-160 147 -786 161 0
-160 147 786 -161 0
160 -147 -787 161 0
160 -147 787 -161 0
160 147 -788 161 0
160 147 788 -161 0
-161 -148 162 0
-161 148 162 0
161 -148 162 0
161 148 -162 0
-162 -149 -163 0
-162 149 -163 0
162 -149 163 0
162 149 163 0
-163 -150 164 0
-163 150 -164 0
163 -150 -164 0
163 150 164 0
-164 -151 -801 165 0
-164 -151 801 -165 0
-164 151 -802 165 0
-164 151 802 -165 0
164 -151 -803 165 0
164 -151 803 -165 0
164 151 -804 165 0
164 151 804 -165 0
-165 -152 -805 166 0
-165 -152 805 -166 0
-165 152 -806 166 0
-165 152 806 -166 0
165 -152 -807 166 0
165 -152 807 -166 0
165 152 -808 166 0
165 152 808 -166 0
-166 -153 -167 0
-166 153 -167 0
166 -153 167 0
166 153 167 0
-167 -154 -168 0
-167 154 168 0
167 -154 168 0
167 154 168 0
-155 169 0
155 -169 0
-169 -156 170 0
-169 156 -170 0
169 -156 170 0
169 156 170 0
-170 -157 171 0
-170 157 171 0
170 -157 -171 0
170 157 171 0
-171 -158 172 0
-171 158 172 0
171 -158 172 0
171 158 -172 0
-172 -159 -173 0
-172 159 173 0
172 -159 -173 0
172 159 173 0
-173 -160 -174 0
-173 160 -174 0
173 -160 174 0
173 160 -174 0
-174 -161 -175 0
-174 161 175 0
174 -161 -175 0
174 161 -175 0
-175 -162 176 0
-175 162 176 0
175 -162 -176 0
175 162 176 0
-176 -163 177 0
-176 163 -177 0
176 -163 -177 0
176 163 177 0
-177 -164 178 0
-177 164 -178 0
177 -164 178 0
177 164 178 0
-178 -165 179 0
-178 165 179 0
178 -165 -179 0
178 165 -179 0
-179 -166 -180 0
-179 166 180 0
179 -166 -180 0
179 166 180 0
-180 -167 181 0
-180 167 181 0
180 -167 -181 0
180 167 181 0
-181 -168 -182 0
-181 168 182 0
181 -168 182 0
181 168 182 0
-169 183 0
169 -183 0
-183 -170 -873 184 0
-183 -170 873 -184 0
-183 170 -874 184 0
-183 170 874 -184 0
183 -170 -875 184 0
183 -170 875 -184 0
183 170 -876 184 0
183 170 876 -184 0
-184 -171 185 0
-184 171 185 0
184 -171 -185 0
184 171 -185 0
-185 -172 -186 0
-185 172 186 0
185 -172 186 0
185 172 -186 0
-186 -173 -187 0
-186 173 187 0
186 -173 187 0
186 173 187 0
-187 -174 188 0
-187 174 -188 0
187 -174 -188 0
187 174 -188 0
-188 -175 189 0
-188 175 189 0
188 -175 -189 0
188 175 -189 0
-189 -176 -190 0
-189 176 190 0
189 -176 -190 0
189 176 -190 0
-190 -177 -191 0
-190 177 191 0
190 -177 191 0
190 177 -191 0
-191 -178 192 0
-191 178 -192 0
191 -178 -192 0
191 178 192 0
-192 -179 -193 0
-192 179 193 0
192 -179 -193 0
192 179 -193 0
-193 -180 194 0
-193 180 194 0
193 -180 -194 0
193 180 194 0
-194 -181 -195 0
-194 181 195 0
194 -181 -195 0
194 181 -195 0
-195 -182 196 0
-195 182 -196 0
195 -182 196 0
195 182 196 0
196 0
