data/benchmarks/bayes/90-14-7-q.gr
p tw 924 737
67 68
177 190
99 100
26 39
136 149
51 361
59 73
159 160
8 9
118 131
40 41
77 90
77 517
100 101
151 802
132 133
92 106
192 193
143 718
41 42
151 164
73 74
100 604
110 123
33 47
133 134
142 718
125 139
51 64
183 876
166 805
74 75
106 107
143 156
66 80
166 167
15 16
47 48
158 172
7 21
107 108
99 113
19 242
48 49
80 81
40 54
135 691
20 243
132 146
81 82
25 38
136 692
73 87
50 360
173 174
66 475
22 23
165 179
14 28
114 115
106 120
147 786
142 717
55 56
60 400
103 618
80 476
47 61
53 370
147 148
139 153
151 801
80 94
91 518
172 186
165 803
100 603
181 182
50 364
183 875
173 187
84 97
176 189
24 311
114 604
158 171
117 130
21 22
19 241
58 71
147 161
113 114
150 163
135 690
49 358
132 145
54 55
91 104
165 807
146 147
50 359
32 45
165 178
87 88
166 808
124 137
179 180
106 119
147 785
65 78
142 716
60 399
88 89
103 617
120 121
80 475
157 170
53 369
6 19
180 181
37 361
90 516
29 30
139 152
61 62
98 111
21 35
121 122
153 154
80 93
2 3
113 127
39 52
91 517
62 63
172 185
165 802
47 401
94 95
131 144
54 68
13 27
3 4
35 36
146 160
72 85
32 287
105 119
183 874
95 96
127 128
164 177
87 101
52 372
187 188
46 60
36 37
114 603
68 69
179 193
28 42
128 129
160 161
120 134
79 93
69 70
101 102
170 876
61 75
161 162
20 34
10 11
49 357
153 167
2 16
102 103
165 806
94 108
194 195
53 67
43 44
35 49
135 136
127 141
38 51
86 100
76 77
24 314
68 82
161 786
27 41
90 515
160 174
117 618
101 115
12 25
60 74
165 801
47 400
1 15
13 26
105 118
52 371
9 10
79 474
46 59
138 151
6 242
38 311
19 32
37 364
79 92
122 691
170 875
134 135
171 184
20 33
75 76
113 606
112 125
31 289
16 17
53 66
108 109
32 290
145 158
129 717
37 314
49 50
86 99
116 616
109 110
178 191
161 785
27 40
50 51
117 617
82 83
119 132
42 56
142 143
23 24
134 148
60 73
83 84
115 116
47 399
152 165
75 89
175 176
34 48
164 804
24 25
61 401
93 106
16 30
116 117
108 122
160 788
67 81
79 473
57 58
167 168
89 90
126 139
49 63
159 173
149 150
8 22
6 241
30 31
100 114
90 91
122 690
36 358
82 96
41 55
31 32
141 142
152 807
184 876
23 37
133 147
113 605
123 124
31 288
115 129
74 88
64 65
174 175
56 70
166 180
156 157
15 29
5 6
129 716
37 313
59 72
107 121
97 98
116 615
167 181
77 516
18 290
89 103
189 190
48 62
148 149
92 105
30 44
143 717
140 154
33 46
81 95
141 155
125 138
22 36
122 123
34 47
164 803
66 79
61 400
114 128
39 372
174 188
7 20
55 69
160 787
67 80
51 364
159 172
8 21
40 53
63 64
100 113
148 162
20 242
36 357
4 5
41 54
136 691
73 86
152 806
184 875
66 474
133 146
181 195
14 27
37 38
74 87
122 136
166 179
47 60
37 312
107 120
130 131
167 180
77 515
18 289
11 12
48 61
140 153
143 716
163 164
44 45
81 94
50 363
173 186
22 35
155 156
61 399
114 127
137 138
39 371
174 187
96 97
18 19
55 68
88 102
188 189
51 363
147 160
180 194
170 171
29 43
129 130
135 689
151 804
121 135
111 112
148 161
20 241
62 76
100 606
136 690
162 163
50 358
66 473
154 168
144 145
3 17
181 194
103 104
166 807
95 109
85 86
195 196
122 135
155 169
142 715
177 178
36 50
103 616
136 137
80 474
96 110
128 142
118 119
77 78
19 244
18 288
21 34
69 83
169 170
129 143
91 516
161 175
151 152
10 24
110 111
54 67
102 116
50 362
51 52
146 159
162 176
183 873
43 57
143 144
103 117
87 100
135 149
147 788
179 192
60 402
28 41
76 90
88 101
53 372
136 150
120 133
168 182
180 193
77 91
61 74
151 803
121 134
169 183
153 166
2 15
165 805
25 26
62 75
100 605
94 107
110 124
50 357
154 167
3 16
51 65
35 48
166 806
95 108
17 18
143 157
9 23
24 313
114 606
36 49
103 615
68 81
80 473
128 141
160 173
19 243
69 82
101 114
135 692
49 360
91 515
161 174
10 23
102 115
176 177
52 370
135 148
17 31
147 787
117 118
60 401
76 89
109 123
53 371
58 59
168 181
37 363
90 518
191 192
50 64
170 874
150 151
142 156
91 92
165 804
83 97
183 184
32 33
175 189
165 166
24 38
124 125
32 289
84 98
116 130
65 66
176 190
9 22
24 312
57 71
114 605
157 158
6 7
117 131
38 314
149 163
139 140
117 616
58 72
42 55
90 104
190 191
39 40
150 164
134 147
182 196
49 359
172 173
31 45
131 132
91 105
75 88
165 808
123 137
72 73
32 46
16 29
64 78
164 165
124 138
108 121
156 170
52 369
5 19
17 30
65 79
49 62
97 111
109 122
157 171
161 788
6 20
37 362
90 517
122 689
50 63
170 873
98 112
82 95
142 155
39 53
23 36
113 604
31 287
47 402
83 96
131 145
115 128
175 188
24 37
72 86
56 69
32 288
129 715
116 129
38 39
164 178
79 476
89 102
6 244
38 313
149 162
71 72
117 615
30 43
63 77
90 103
12 13
4 18
182 195
104 105
31 44
13 14
123 136
45 46
164 802
105 106
37 51
64 77
46 47
156 169
160 786
78 79
5 18
38 52
116 618
70 84
138 139
97 110
19 20
130 144
161 787
79 80
11 25
71 85
171 172
20 21
52 53
163 177
152 805
12 26
184 874
44 58
113 603
104 118
53 54
45 59
145 146
26 27
137 151
37 311
86 87
18 32
79 475
78 92
178 179
27 28
138 152
6 243
170 184
38 312
19 33
119 120
143 715
63 76
122 692
111 125
36 360
60 61
171 185
4 17
52 66
152 153
1 2
112 126
31 290
144 158
164 801
93 94
37 50
85 99
39 370
185 186
145 159
177 191
129 718
160 785
26 40
51 362
116 617
70 83
186 187
118 132
77 518
130 143
178 192
11 24
119 133
151 165
136 689
163 176
184 873
44 57
104 117
152 166
45 58
61 402
93 107
193 194
137 150
59 60
96 109
18 31
78 91
126 140
18 287
170 183
92 93
129 142
20 244
184 185
111 124
36 359
33 34
25 39
125 126
50 361
52 65
152 808
66 476
162 175
34 35
144 157
66 67
103 116
158 159
39 369
7 8
